; Copyright (c) 2026 The RIINA Authors. All rights reserved.
; Auto-generated from 02_FORMAL/coq/Industries/IndustryEnergy.v (23 validations)
; Generated by scripts/generate-full-stack.py
;
; Translation Validation for IndustryEnergy
; Layer 9: Verifies compiler backend preserves formal semantics.
; Each assertion checks source IR ≡ target code for a proven property.

(set-logic QF_LIA)
(set-option :produce-models true)

; IR node representation
(declare-sort IRNode 0)
(declare-sort TargetNode 0)

; cip_impact_to_nat: source semantics (matches Coq)
(declare-fun source_cip_impact_to_nat () Bool)
(declare-fun target_cip_impact_to_nat () Bool)
(assert (= source_cip_impact_to_nat target_cip_impact_to_nat))

; cip_le: source semantics (matches Coq)
(declare-fun source_cip_le () Bool)
(declare-fun target_cip_le () Bool)
(assert (= source_cip_le target_cip_le))

; cip_mandatory_requirements: source semantics (matches Coq)
(declare-fun source_cip_mandatory_requirements () Bool)
(declare-fun target_cip_mandatory_requirements () Bool)
(assert (= source_cip_mandatory_requirements target_cip_mandatory_requirements))

; nerc_cip_all_controls: source semantics (matches Coq)
(declare-fun source_nerc_cip_all_controls () Bool)
(declare-fun target_nerc_cip_all_controls () Bool)
(assert (= source_nerc_cip_all_controls target_nerc_cip_all_controls))

; bes_criticality: source semantics (matches Coq)
(declare-fun source_bes_criticality () Bool)
(declare-fun target_bes_criticality () Bool)
(assert (= source_bes_criticality target_bes_criticality))

; incident_response_hours: source semantics (matches Coq)
(declare-fun source_incident_response_hours () Bool)
(declare-fun target_incident_response_hours () Bool)
(assert (= source_incident_response_hours target_incident_response_hours))

; rto_hours: source semantics (matches Coq)
(declare-fun source_rto_hours () Bool)
(declare-fun target_rto_hours () Bool)
(assert (= source_rto_hours target_rto_hours))

; assessment_frequency_days: source semantics (matches Coq)
(declare-fun source_assessment_frequency_days () Bool)
(declare-fun target_assessment_frequency_days () Bool)
(assert (= source_assessment_frequency_days target_assessment_frequency_days))

; access_log_retention_days: source semantics (matches Coq)
(declare-fun source_access_log_retention_days () Bool)
(declare-fun target_access_log_retention_days () Bool)
(assert (= source_access_log_retention_days target_access_log_retention_days))

; nerc_cip_compliance: translation preserves property (matches Coq: Theorem)
(declare-fun source_nerc_cip_compliance () Bool)
(declare-fun target_nerc_cip_compliance () Bool)
(assert (= source_nerc_cip_compliance target_nerc_cip_compliance))

; iec_62351_security: translation preserves property (matches Coq: Theorem)
(declare-fun source_iec_62351_security () Bool)
(declare-fun target_iec_62351_security () Bool)
(assert (= source_iec_62351_security target_iec_62351_security))

; nrc_cyber_security: translation preserves property (matches Coq: Theorem)
(declare-fun source_nrc_cyber_security () Bool)
(declare-fun target_nrc_cyber_security () Bool)
(assert (= source_nrc_cyber_security target_nrc_cyber_security))

; ot_security: translation preserves property (matches Coq: Theorem)
(declare-fun source_ot_security () Bool)
(declare-fun target_ot_security () Bool)
(assert (= source_ot_security target_ot_security))

; substation_security: translation preserves property (matches Coq: Theorem)
(declare-fun source_substation_security () Bool)
(declare-fun target_substation_security () Bool)
(assert (= source_substation_security target_substation_security))

; high_impact_all_controls: translation preserves property (matches Coq: Theorem)
(declare-fun source_high_impact_all_controls () Bool)
(declare-fun target_high_impact_all_controls () Bool)
(assert (= source_high_impact_all_controls target_high_impact_all_controls))

; esp_required: translation preserves property (matches Coq: Theorem)
(declare-fun source_esp_required () Bool)
(declare-fun target_esp_required () Bool)
(assert (= source_esp_required target_esp_required))

; cip_le_refl: translation preserves property (matches Coq: Lemma)
(declare-fun source_cip_le_refl () Bool)
(declare-fun target_cip_le_refl () Bool)
(assert (= source_cip_le_refl target_cip_le_refl))

; cip_le_trans: translation preserves property (matches Coq: Lemma)
(declare-fun source_cip_le_trans () Bool)
(declare-fun target_cip_le_trans () Bool)
(assert (= source_cip_le_trans target_cip_le_trans))

; high_impact_all_11: translation preserves property (matches Coq: Theorem)
(declare-fun source_high_impact_all_11 () Bool)
(declare-fun target_high_impact_all_11 () Bool)
(assert (= source_high_impact_all_11 target_high_impact_all_11))

; cip_requirements_monotone: translation preserves property (matches Coq: Theorem)
(declare-fun source_cip_requirements_monotone () Bool)
(declare-fun target_cip_requirements_monotone () Bool)
(assert (= source_cip_requirements_monotone target_cip_requirements_monotone))

; full_cip_requires_identification: translation preserves property (matches Coq: Theorem)
(declare-fun source_full_cip_requires_identification () Bool)
(declare-fun target_full_cip_requires_identification () Bool)
(assert (= source_full_cip_requires_identification target_full_cip_requires_identification))

; full_cip_requires_perimeter: translation preserves property (matches Coq: Theorem)
(declare-fun source_full_cip_requires_perimeter () Bool)
(declare-fun target_full_cip_requires_perimeter () Bool)
(assert (= source_full_cip_requires_perimeter target_full_cip_requires_perimeter))

; full_cip_requires_supply_chain: translation preserves property (matches Coq: Theorem)
(declare-fun source_full_cip_requires_supply_chain () Bool)
(declare-fun target_full_cip_requires_supply_chain () Bool)
(assert (= source_full_cip_requires_supply_chain target_full_cip_requires_supply_chain))

; control_center_critical: translation preserves property (matches Coq: Theorem)
(declare-fun source_control_center_critical () Bool)
(declare-fun target_control_center_critical () Bool)
(assert (= source_control_center_critical target_control_center_critical))

; scada_critical: translation preserves property (matches Coq: Theorem)
(declare-fun source_scada_critical () Bool)
(declare-fun target_scada_critical () Bool)
(assert (= source_scada_critical target_scada_critical))

; bes_criticality_positive: translation preserves property (matches Coq: Theorem)
(declare-fun source_bes_criticality_positive () Bool)
(declare-fun target_bes_criticality_positive () Bool)
(assert (= source_bes_criticality_positive target_bes_criticality_positive))

; high_impact_fastest_response: translation preserves property (matches Coq: Theorem)
(declare-fun source_high_impact_fastest_response () Bool)
(declare-fun target_high_impact_fastest_response () Bool)
(assert (= source_high_impact_fastest_response target_high_impact_fastest_response))

; response_time_decreasing: translation preserves property (matches Coq: Theorem)
(declare-fun source_response_time_decreasing () Bool)
(declare-fun target_response_time_decreasing () Bool)
(assert (= source_response_time_decreasing target_response_time_decreasing))

; rto_bounded: translation preserves property (matches Coq: Theorem)
(declare-fun source_rto_bounded () Bool)
(declare-fun target_rto_bounded () Bool)
(assert (= source_rto_bounded target_rto_bounded))

; high_impact_short_rto: translation preserves property (matches Coq: Theorem)
(declare-fun source_high_impact_short_rto () Bool)
(declare-fun target_high_impact_short_rto () Bool)
(assert (= source_high_impact_short_rto target_high_impact_short_rto))

; assessment_more_frequent_high: translation preserves property (matches Coq: Theorem)
(declare-fun source_assessment_more_frequent_high () Bool)
(declare-fun target_assessment_more_frequent_high () Bool)
(assert (= source_assessment_more_frequent_high target_assessment_more_frequent_high))

; high_medium_same_retention: translation preserves property (matches Coq: Theorem)
(declare-fun source_high_medium_same_retention () Bool)
(declare-fun target_high_medium_same_retention () Bool)
(assert (= source_high_medium_same_retention target_high_medium_same_retention))

; Verify all translation validations are satisfiable
(check-sat)
(exit)
